43 7198
57 2091
54 2530
66 9374
57 9630
50 5490
86 2364
24 7884
32 9546
42 6627
42 8329
93 3421
12 7660
62 4674
99 6980
58 2189
76 9968
28 3060
81 9683
91 6087
18 2112
24 9766
49 7963
49 8873
28 5213
12 2878
35 3261
66 6683
25 8991
85 5806
76 8662
19 4054
57 6990
65 6200
11 2847
100 7584
22 5116
66 5330
50 6456
39 7093
69 1815
88 1903
66 3882
13 9930
60 5129
44 9476
99 3365
20 7797
24 2531
33 1378
26 3188
97 2984
22 3167
96 6162
69 1657
43 2919
33 5459
13 1140
88 1848
56 6142
